output [""++format([S,M,L,N])++"\n"++format(obj)++"\n"++format(pfc)++"\n"];
set of int: Cavities = 1..80;
int: b = 40;
set of int: CableStarts = 1..40;
array [Cavities] of int: pfc;
int: S;
int: M;
int: diff1 = if b==0 then 0 else max([pfc[i]-pfc[i+b] | i in CableStarts, ]) endif;
int: diff2 = if b==0 then 0 else max([pfc[i+b]-pfc[i] | i in CableStarts, ]) endif;
int: L = if b==0 then 0 else max(diff1,diff2)-1 endif;
int: N;
int: obj;
